Instance: E101-08e.dat
Class:  2
100 --- number of customers (no depot)
21 --- number of vehicles
212 --- number of items
Capacity - height - width of vehicles
   200     40     20
Node - x - y - demand  Readytime Duetime
  0.00   35.00  35.00   0.00 0       275.00       
  1.00   41.00  49.00  10.00 170.00  177.00       
  2.00   35.00  17.00   7.00  38.00   53.00       
  3.00   55.00  45.00  13.00 141.00  161.00       
  4.00   55.00  20.00  19.00 174.00  184.00       
  5.00   15.00  30.00  26.00 138.00  155.00       
  6.00   25.00  30.00   3.00 141.00  147.00       
  7.00   20.00  50.00   5.00  23.00   50.00       
  8.00   10.00  43.00   9.00  64.00   70.00       
  9.00   55.00  60.00  16.00 121.00  137.00       
 10.00   30.00  60.00  16.00  33.00   50.00       
 11.00   20.00  65.00  12.00 118.00  123.00       
 12.00   50.00  35.00  19.00  18.00   50.00       
 13.00   30.00  25.00  23.00 192.00  197.00       
 14.00   15.00  10.00  20.00  22.00   50.00       
 15.00   30.00   5.00   8.00  51.00   56.00       
 16.00   10.00  20.00  19.00 169.00  185.00       
 17.00    5.00  30.00   2.00  26.00   50.00       
 18.00   20.00  40.00  12.00  56.00   67.00       
 19.00   15.00  60.00  17.00  72.00   82.00       
 20.00   45.00  65.00   9.00 125.00  139.00       
 21.00   45.00  20.00  11.00 140.00  156.00       
 22.00   45.00  10.00  18.00  99.00  108.00       
 23.00   55.00   5.00  29.00 167.00  181.00       
 24.00   65.00  35.00   3.00  30.00   50.00       
 25.00   65.00  20.00   6.00  70.00   79.00       
 26.00   45.00  30.00  17.00  11.00   50.00       
 27.00   35.00  40.00  16.00 109.00  115.00       
 28.00   41.00  37.00  16.00  83.00   95.00       
 29.00   64.00  42.00   9.00 106.00  117.00       
 30.00   40.00  60.00  21.00  68.00   88.00       
 31.00   31.00  52.00  27.00 171.00  183.00       
 32.00   35.00  69.00  23.00  53.00   73.00       
 33.00   53.00  52.00  11.00 178.00  185.00       
 34.00   65.00  55.00  14.00 177.00  195.00       
 35.00   63.00  65.00   8.00  33.00   50.00       
 36.00    2.00  60.00   5.00  59.00   77.00       
 37.00   20.00  20.00   8.00  81.00  101.00       
 38.00    5.00   5.00  16.00  29.00   50.00       
 39.00   60.00  12.00  31.00 174.00  188.00       
 40.00   40.00  25.00   9.00  34.00   50.00       
 41.00   42.00   7.00   5.00  42.00   59.00       
 42.00   24.00  12.00   5.00 128.00  144.00       
 43.00   23.00   3.00   7.00  96.00  109.00       
 44.00   11.00  14.00  18.00  22.00   50.00       
 45.00    6.00  38.00  16.00  47.00   54.00       
 46.00    2.00  48.00   1.00  83.00   94.00       
 47.00    8.00  56.00  27.00 117.00  133.00       
 48.00   13.00  52.00  36.00 118.00  131.00       
 49.00    6.00  68.00  30.00  22.00   50.00       
 50.00   47.00  47.00  13.00 104.00  123.00       
 51.00   49.00  58.00  10.00 106.00  120.00       
 52.00   27.00  43.00   9.00 145.00  152.00       
 53.00   37.00  31.00  14.00 185.00  194.00       
 54.00   57.00  29.00  18.00  31.00   50.00       
 55.00   63.00  23.00   2.00  93.00  112.00       
 56.00   53.00  12.00   6.00 135.00  143.00       
 57.00   32.00  12.00   7.00 139.00  148.00       
 58.00   36.00  26.00  18.00  35.00   50.00       
 59.00   21.00  24.00  28.00  97.00  104.00       
 60.00   17.00  34.00   3.00 133.00  149.00       
 61.00   12.00  24.00  13.00  86.00  105.00       
 62.00   24.00  58.00  19.00  79.00   93.00       
 63.00   27.00  69.00  10.00 172.00  183.00       
 64.00   15.00  77.00   9.00 110.00  128.00       
 65.00   62.00  77.00  20.00   2.00   50.00       
 66.00   49.00  73.00  25.00  83.00   93.00       
 67.00   67.00   5.00  25.00 130.00  145.00       
 68.00   56.00  39.00  36.00 132.00  139.00       
 69.00   37.00  47.00   6.00 141.00  155.00       
 70.00   37.00  56.00   5.00  27.00   50.00       
 71.00   57.00  68.00  15.00 179.00  186.00       
 72.00   47.00  16.00  25.00  77.00   93.00       
 73.00   44.00  17.00   9.00  13.00   50.00       
 74.00   46.00  13.00   8.00 107.00  113.00       
 75.00   49.00  11.00  18.00 178.00  189.00       
 76.00   49.00  42.00  13.00 123.00  139.00       
 77.00   53.00  43.00  14.00  44.00   58.00       
 78.00   61.00  52.00   3.00  50.00   70.00       
 79.00   57.00  48.00  23.00  69.00   80.00       
 80.00   56.00  37.00   6.00  74.00   83.00       
 81.00   55.00  54.00  26.00  37.00   50.00       
 82.00   15.00  47.00  16.00 184.00  197.00       
 83.00   14.00  37.00  11.00  13.00   50.00       
 84.00   11.00  31.00   7.00 133.00  153.00       
 85.00   16.00  22.00  41.00  98.00  107.00       
 86.00    4.00  18.00  35.00 147.00  165.00       
 87.00   28.00  18.00  26.00  99.00  115.00       
 88.00   26.00  52.00   9.00  76.00   81.00       
 89.00   26.00  35.00  15.00  13.00   50.00       
 90.00   31.00  67.00   3.00  56.00   62.00       
 91.00   15.00  19.00   1.00 181.00  190.00       
 92.00   22.00  22.00   2.00  59.00   72.00       
 93.00   18.00  24.00  22.00  92.00  102.00       
 94.00   26.00  27.00  27.00 116.00  123.00       
 95.00   25.00  24.00  20.00  95.00  106.00       
 96.00   22.00  27.00  11.00  78.00   85.00       
 97.00   25.00  21.00  12.00 105.00  119.00       
 98.00   19.00  21.00  10.00 179.00  195.00       
 99.00   20.00  26.00   9.00 115.00  133.00       
100.00   18.00  18.00  17.00 104.00  109.00       
Node - number of items - h - w for each item
    0   0
    1   3   11    7    9    5   18    4
    2   3   14    8   19    4   16    3
    3   1    9    4
    4   3    7    9   10    6   16    5
    5   1   14    3
    6   3    5   16    5   11   12    5
    7   2   14    5   16    3
    8   2    4    6   13    3
    9   2   11    8   16    5
   10   1   29    4
   11   2   15    4   28    3
   12   1   25    2
   13   3    5   12   12    7    4    7
   14   2   12    5   10    5
   15   2    8   14   28    3
   16   2    6   11   19    2
   17   1    4    7
   18   2    4   15   10    5
   19   2   12    5   10    4
   20   2    6   11    8    5
   21   2   12    6    5    6
   22   1    6   13
   23   1   13    5
   24   3   24    3   31    2   26    2
   25   2   14    7    9    7
   26   1   10    8
   27   3    5   14   22    4   15    3
   28   2    7   15   21    3
   29   2   13    7   11    6
   30   3    7   12    9    7   27    2
   31   1    6   12
   32   1    5   13
   33   1    4    7
   34   3    6   14   15    8   10    6
   35   3    6   12   10    6   13    3
   36   3    6   11   12    6   23    3
   37   3    7   12    7   11   24    4
   38   3    7   12    6    7   11    5
   39   1    6    6
   40   3    5   15    5   12   24    3
   41   2    6   15    6    9
   42   3    4   10    6    9    7    8
   43   3    4   15   29    4   19    3
   44   3    5   10    4    8   18    4
   45   1    9    8
   46   3   15    6   18    3   22    2
   47   2   15    6   12    6
   48   3    7    9    4    8   24    3
   49   1    6    7
   50   3    5   16   14    8   30    2
   51   2   15    8    9    6
   52   3   15    8    9    7   16    4
   53   3   13    6   21    2   14    2
   54   1    8   10
   55   3   13    5   15    4   20    3
   56   2    6   11   25    4
   57   2    5   12    6   10
   58   2    8   14   12    6
   59   3   12    7   11    4   30    3
   60   1   14    7
   61   1    5   14
   62   2    4   16    9    6
   63   1   16    4
   64   3    4    9   15    6   14    6
   65   2   23    4   19    4
   66   2    7   15   29    3
   67   2   14    5   22    2
   68   3    8   11   12    6   29    3
   69   2   13    6   17    4
   70   2    5   14    9    7
   71   3    6    8   11    4   22    3
   72   1   15    3
   73   2    5   11    9    6
   74   2    5   14   12    4
   75   3    5   14    6    7   31    3
   76   2   16    8   16    3
   77   2    7   11   13    4
   78   1   29    2
   79   1   14    5
   80   3    5    8    9    4   20    2
   81   3    5    8   28    3   26    3
   82   1    9    4
   83   2    8   10   16    4
   84   1    7    9
   85   2   11    6   27    3
   86   3    6   13    8   12   12    4
   87   3   12    6   11    4   17    3
   88   2   13    7   21    3
   89   1   13    7
   90   2    8    6   22    4
   91   2   13    6   22    2
   92   3    5    8    5    7   15    3
   93   2    4   14   14    6
   94   3    9    8   30    4   16    4
   95   3    4    8   16    7   14    5
   96   2    6   13   18    2
   97   2    6   12   11    7
   98   2    6   14   12    8
   99   3    6   16   11    6   13    5
  100   2    7   16   16    3
